(declare-rel loop ((Array Int Int) (Array Int Int) Int Int Int ))
(declare-rel exit ())
(declare-var i Int )
(declare-var i1 Int )
(declare-var i2 Int )
(declare-var i3 Int )
(declare-var i4 Int )
(declare-var i5 Int )
(declare-var i6 Int )
(declare-var i7 Int )
(declare-var i8 Int )
(declare-var k Int )
(declare-var k1 Int )
(declare-var k2 Int )
(declare-var k3 Int )
(declare-var k4 Int )
(declare-var k5 Int )
(declare-var k6 Int )
(declare-var k7 Int )
(declare-var k8 Int )
(declare-var index_limit Int )
(declare-var a_i Int )
(declare-var a_i1 Int )
(declare-var a_i2 Int )
(declare-var a_i3 Int )
(declare-var a_i4 Int )
(declare-var a_i5 Int )
(declare-var a_i6 Int )
(declare-var a_i7 Int )
(declare-var a_i_curr Int )
(declare-var a_i_curr1 Int )
(declare-var a_i_curr2 Int )
(declare-var a_i_curr3 Int )
(declare-var a_i_curr4 Int )
(declare-var a_i_curr5 Int )
(declare-var a_i_curr6 Int )
(declare-var a_i_curr7 Int )
(declare-var b_elem Int )
(declare-var b_elem1 Int )
(declare-var b_elem2 Int )
(declare-var b_elem3 Int )
(declare-var b_elem4 Int )
(declare-var b_elem5 Int )
(declare-var b_elem6 Int )
(declare-var b_elem7 Int )
(declare-var b_ind Int )
(declare-var b_ind1 Int )
(declare-var b_ind2 Int )
(declare-var b_ind3 Int )
(declare-var b_ind5 Int )
(declare-var b_ind4 Int )
(declare-var b_ind6 Int )
(declare-var b_ind7 Int )
(declare-var count Int )
(declare-var a_array (Array Int Int) )
(declare-var a_array1 (Array Int Int) )
(declare-var a_array2 (Array Int Int) )
(declare-var a_array3 (Array Int Int) )
(declare-var a_array4 (Array Int Int) )
(declare-var a_array5 (Array Int Int) )
(declare-var a_array6 (Array Int Int) )
(declare-var a_array7 (Array Int Int) )
(declare-var a_array8 (Array Int Int) )
(declare-var b_array (Array Int Int) )

(rule (=> 
	(and 
		(= index_limit (* count 8))
		(= i 1)
		(= k 0)

		(< i index_limit)
		
		(= k1 (+ k 1))
		(= b_ind (- index_limit k1))
		(= b_elem (select b_array b_ind))
		(= a_i_curr (select a_array i))
		(= a_i (+ b_elem a_i_curr))
		(= a_array1 (store a_array i a_i))
		(= i1 (+ i 1))

		(= k2 (+ k1 1))
		(= b_ind1 (- index_limit k2))
		(= b_elem1 (select b_array b_ind1))
		(= a_i_curr1 (select a_array1 i1))
		(= a_i1 (+ b_elem1 a_i_curr1))
		(= a_array2 (store a_array1 i1 a_i1))
		(= i2 (+ i1 1))

		(= k3 (+ k2 1))
		(= b_ind2 (- index_limit k3))
		(= b_elem2 (select b_array b_ind2))
		(= a_i_curr2 (select a_array2 i2))
		(= a_i2 (+ b_elem2 a_i_curr2))
		(= a_array3 (store a_array2 i2 a_i2))
		(= i3 (+ i2 1))

		(= k4 (+ k3 1))
		(= b_ind3 (- index_limit k4))
		(= b_elem3 (select b_array b_ind3))
		(= a_i_curr3 (select a_array3 i3))
		(= a_i3 (+ b_elem3 a_i_curr3))
		(= a_array4 (store a_array3 i3 a_i3))
		(= i4 (+ i3 1))

		(= k5 (+ k4 1))
		(= b_ind4 (- index_limit k5))
		(= b_elem4 (select b_array b_ind4))
		(= a_i_curr4 (select a_array4 i4))
		(= a_i4 (+ b_elem4 a_i_curr4))
		(= a_array5 (store a_array4 i4 a_i4))
		(= i5 (+ i4 1))

		(= k6 (+ k5 1))
		(= b_ind5 (- index_limit k6))
		(= b_elem5 (select b_array b_ind5))
		(= a_i_curr5 (select a_array5 i5))
		(= a_i5 (+ b_elem5 a_i_curr5))
		(= a_array6 (store a_array5 i5 a_i5))
		(= i6 (+ i5 1))

		(= k7 (+ k6 1))
		(= b_ind6 (- index_limit k7))
		(= b_elem6 (select b_array b_ind6))
		(= a_i_curr6 (select a_array6 i6))
		(= a_i6 (+ b_elem6 a_i_curr6))
		(= a_array7 (store a_array6 i6 a_i6))
		(= i7 (+ i6 1))
	)
	(loop a_array7 b_array i7 k7 count)
))
(rule (=> 
	(and 
		(loop a_array b_array i k count)

		(= index_limit (* count 8))
		(< i index_limit)
		
		(= k1 (+ k 1))
		(= b_ind (- index_limit k1))
		(= b_elem (select b_array b_ind))
		(= a_i_curr (select a_array i))
		(= a_i (+ b_elem a_i_curr))
		(= a_array1 (store a_array i a_i))
		(= i1 (+ i 1))

		(= k2 (+ k1 1))
		(= b_ind1 (- index_limit k2))
		(= b_elem1 (select b_array b_ind1))
		(= a_i_curr1 (select a_array1 i1))
		(= a_i1 (+ b_elem1 a_i_curr1))
		(= a_array2 (store a_array1 i1 a_i1))
		(= i2 (+ i1 1))

		(= k3 (+ k2 1))
		(= b_ind2 (- index_limit k3))
		(= b_elem2 (select b_array b_ind2))
		(= a_i_curr2 (select a_array2 i2))
		(= a_i2 (+ b_elem2 a_i_curr2))
		(= a_array3 (store a_array2 i2 a_i2))
		(= i3 (+ i2 1))

		(= k4 (+ k3 1))
		(= b_ind3 (- index_limit k4))
		(= b_elem3 (select b_array b_ind3))
		(= a_i_curr3 (select a_array3 i3))
		(= a_i3 (+ b_elem3 a_i_curr3))
		(= a_array4 (store a_array3 i3 a_i3))
		(= i4 (+ i3 1))

		(= k5 (+ k4 1))
		(= b_ind4 (- index_limit k5))
		(= b_elem4 (select b_array b_ind4))
		(= a_i_curr4 (select a_array4 i4))
		(= a_i4 (+ b_elem4 a_i_curr4))
		(= a_array5 (store a_array4 i4 a_i4))
		(= i5 (+ i4 1))

		(= k6 (+ k5 1))
		(= b_ind5 (- index_limit k6))
		(= b_elem5 (select b_array b_ind5))
		(= a_i_curr5 (select a_array5 i5))
		(= a_i5 (+ b_elem5 a_i_curr5))
		(= a_array6 (store a_array5 i5 a_i5))
		(= i6 (+ i5 1))

		(= k7 (+ k6 1))
		(= b_ind6 (- index_limit k7))
		(= b_elem6 (select b_array b_ind6))
		(= a_i_curr6 (select a_array6 i6))
		(= a_i6 (+ b_elem6 a_i_curr6))
		(= a_array7 (store a_array6 i6 a_i6))
		(= i7 (+ i6 1))

		(= k8 (+ k7 1))
		(= b_ind7 (- index_limit k8))
		(= b_elem7 (select b_array b_ind7))
		(= a_i_curr7 (select a_array7 i7))
		(= a_i7 (+ b_elem a_i_curr7))
		(= a_array8 (store a_array7 i7 a_i7))
		(= i8 (+ i7 1))		
	)
	(loop a_array8 b_array i8 k8 count)
))
(rule (=> 
	(and 
		(loop a_array b_array i k count)
		(= index_limit (* count 8))
		(not (< i index_limit))
	)
	exit
))
(query exit)